RAW/CMTX/fspd/CMT13X.vrp_seed-2.out
1543.050787	15.97	25.958
