RAW/CMTX/fspd/CMT13X.vrp_seed-2.sol
Route #1: 68 76 77 79 80 78 72 75 74 71 73
Route #2: 55 58 56 60 63 66 64 62 61 65
Route #3: 120 105 106 102 95 87 86 111 82 88
Route #4: 119 81 2 1 3 4 5 6 83 113 117 112
Route #5: 29 36 34 33 30 31 35 32 26 21
Route #6: 17 16 19 25 22 24 27 28 23 20
Route #7: 38 39 42 50 51 59 57 54 53 52
Route #8: 92 89 91 90 18 118 114 109 115 97 94 93 96
Route #9: 40 43 45 48 47 49 46 44 41 37
Route #10: 101 99 100 116 110 98 67 70 69 103 104 107
Route #11: 85 84 7 9 10 11 15 14 13 12 8 108
Cost 1543.050787